50

98 33 312
98 47 305
96 38 291
95 19 436
94 40 414
93 4 450
92 13 341
91 31 330
89 9 423
88 21 413
88 21 277
88 20 291
86 28 405
83 32 357
83 29 272
82 24 358
80 37 354
79 3 382
78 24 381
76 10 388
76 30 289
75 34 300
73 33 427
67 26 442
63 15 387
63 1 426
62 16 277
55 13 419
54 18 379
53 10 339
52 17 427
51 19 417
51 11 426
51 21 347
47 15 359
45 11 287
45 23 177
42 18 427
42 16 446
40 2 304
37 16 202
37 8 235
36 14 302
36 7 398
29 3 170
29 11 93
25 7 257
24 4 361
20 9 375
20 7 303
